c Reading file examples/loan_acquisition/mmc_encoding/encoding.dimacs
c Building 1-fold quantitative self-composition...
c ind 145  146  151  152  153  154  155  156  185  186  187  196  197  198  199  200  201  202  203  204  208  209  213  214 0
c previous ind: 499  502  503  506  509  510  513  516  517  520  521  524  525  528  531  532  535  536  539  542  543  546  549  550  553  554  557  558  561  562  565  566  567  569  570  571 0
c This is a CNF SAT formula in the DIMACS CNF format,
c produced with the bc2cnf translator by Tommi Junttila;
c see http://users.ics.aalto.fi/tjunttil/circuits/index.html
c phi_Gamma_det <-> 1
c phi_Gamma <-> 1
c phi_T_feature_det <-> 1
c phi_T_transitions <-> 1
c phi_T_transitions_consistency <-> 1
c phi_T <-> 1
c phi_sim_leaves <-> 1
c phi_sim_transition <-> 1
c phi_sim <-> 1
c FORMULA <-> 1
c pi_1 <-> 2
c pi_0 <-> 85
c tau_1_3_approved_1 <-> 145
c tau_1_3_approved_0 <-> 146
c tau_1_2_approved_1 <-> 151
c tau_1_2_approved_0 <-> 152
c tau_1_1_approved_1 <-> 153
c tau_1_1_approved_0 <-> 154
c tau_1_0_approved_1 <-> 155
c tau_1_0_approved_0 <-> 156
c tau_0_3_approved_1 <-> 185
c tau_0_3_approved_0 <-> 186
c tau_0_3_1 <-> 187
c tau_0_2_approved_1 <-> 196
c tau_0_2_approved_0 <-> 197
c tau_0_2_1 <-> 198
c tau_0_1_approved_1 <-> 199
c tau_0_1_approved_0 <-> 200
c tau_0_1_1 <-> 201
c tau_0_0_approved_1 <-> 202
c tau_0_0_approved_0 <-> 203
c tau_0_0_1 <-> 204
c lam_1_monthly_income <-> 208
c lam_1_age <-> 209
c lam_0_monthly_income <-> 213
c lam_0_age <-> 214
c phi_Gamma_val <-> 497
c monthly_income_P752000 <-> 499
c monthly_income_P289000 <-> 502
c age_P3500 <-> 503
c monthly_income_P484200 <-> 506
c monthly_income_P991100 <-> 509
c age_P3800 <-> 510
c monthly_income_P191500 <-> 513
c monthly_income_P928600 <-> 516
c age_P7700 <-> 517
c monthly_income_P287600 <-> 520
c age_P5500 <-> 521
c monthly_income_P830300 <-> 524
c age_P2700 <-> 525
c monthly_income_P507100 <-> 528
c monthly_income_P688100 <-> 531
c age_P6800 <-> 532
c monthly_income_P431000 <-> 535
c age_P4700 <-> 536
c monthly_income_P906700 <-> 539
c monthly_income_P602900 <-> 542
c age_P3000 <-> 543
c monthly_income_P678300 <-> 546
c monthly_income_P395900 <-> 549
c age_P6200 <-> 550
c monthly_income_P431600 <-> 553
c age_P3600 <-> 554
c monthly_income_P625800 <-> 557
c age_P7800 <-> 558
c monthly_income_P707900 <-> 561
c age_P4900 <-> 562
c pi_approved_1 <-> 565
c approved_P100 <-> 565
c monthly_income_P644000 <-> 566
c age_P8000 <-> 567
c pi_approved_0 <-> 569
c approved_P0 <-> 569
c monthly_income_P757800 <-> 570
c age_P2500 <-> 571
c ind 499 502 503 506 509 510 513 516 517 520 521 524 525 528 531 532 535 536 539 542 543 546 549 550 553 554 557 558 561 562 565 566 567 569 570 571 0
p cnf 573 1574
1 0
2 -3 0
2 -16 0
-2 16 3 0
-3 4 0
-3 60 0
3 -60 -4 0
-4 5 0
-4 208 0
4 -208 -5 0
5 -6 0
5 -33 0
-5 33 6 0
6 -7 0
6 -67 0
-6 67 7 0
7 -8 0
7 -37 0
-7 37 8 0
8 -9 0
8 -83 0
-8 83 9 0
9 -10 0
9 -41 0
-9 41 10 0
10 -11 0
10 -43 0
-10 43 11 0
11 -12 0
11 -73 0
-11 73 12 0
12 -13 0
12 -45 0
-12 45 13 0
13 -14 0
13 -49 0
-13 49 14 0
14 -15 0
14 -76 0
-14 76 15 0
15 -50 0
15 -84 0
-15 84 50 0
16 -17 0
16 -26 0
-16 26 17 0
-17 18 0
-17 78 0
17 -78 -18 0
-18 19 0
-18 208 0
18 -208 -19 0
19 -20 0
19 -65 0
-19 65 20 0
20 -21 0
20 -35 0
-20 35 21 0
21 -22 0
21 -69 0
-21 69 22 0
22 -23 0
22 -57 0
-22 57 23 0
23 -24 0
23 -39 0
-23 39 24 0
24 -25 0
24 -71 0
-24 71 25 0
25 -47 0
25 -75 0
-25 75 47 0
26 -27 0
26 -51 0
-26 51 27 0
-27 28 0
-27 31 0
27 -31 -28 0
-28 29 0
-28 30 0
28 -30 -29 0
29 145 0
29 -565 0
-29 565 -145 0
30 146 0
30 -569 0
-30 569 -146 0
-31 32 0
-31 209 0
31 -209 -32 0
32 -33 0
32 -34 0
-32 34 33 0
-33 499 0
-33 532 0
33 -532 -499 0
34 -35 0
34 -36 0
-34 36 35 0
-35 506 0
-35 517 0
35 -517 -506 0
36 -37 0
36 -38 0
-36 38 37 0
-37 516 0
-37 517 0
37 -517 -516 0
38 -39 0
38 -40 0
-38 40 39 0
-39 528 0
-39 558 0
39 -558 -528 0
40 -41 0
40 -42 0
-40 42 41 0
-41 531 0
-41 532 0
41 -532 -531 0
42 -43 0
42 -44 0
-42 44 43 0
-43 539 0
-43 550 0
43 -550 -539 0
44 -45 0
44 -46 0
-44 46 45 0
-45 546 0
-45 558 0
45 -558 -546 0
46 -47 0
46 -48 0
-46 48 47 0
-47 549 0
-47 550 0
47 -550 -549 0
48 -49 0
48 -50 0
-48 50 49 0
-49 557 0
-49 558 0
49 -558 -557 0
-50 566 0
-50 567 0
50 -567 -566 0
51 -52 0
51 -58 0
-51 58 52 0
-52 53 0
-52 56 0
52 -56 -53 0
-53 54 0
-53 55 0
53 -55 -54 0
54 151 0
54 -565 0
-54 565 -151 0
55 152 0
55 -569 0
-55 569 -152 0
-56 57 0
-56 209 0
56 -209 -57 0
-57 520 0
-57 521 0
57 -521 -520 0
58 -59 0
58 -77 0
-58 77 59 0
-59 60 0
-59 63 0
59 -63 -60 0
-60 61 0
-60 62 0
60 -62 -61 0
61 153 0
61 -565 0
-61 565 -153 0
62 154 0
62 -569 0
-62 569 -154 0
-63 64 0
-63 209 0
63 -209 -64 0
64 -65 0
64 -66 0
-64 66 65 0
-65 502 0
-65 503 0
65 -503 -502 0
66 -67 0
66 -68 0
-66 68 67 0
-67 509 0
-67 510 0
67 -510 -509 0
68 -69 0
68 -70 0
-68 70 69 0
-69 513 0
-69 554 0
69 -554 -513 0
70 -71 0
70 -72 0
-70 72 71 0
-71 535 0
-71 536 0
71 -536 -535 0
72 -73 0
72 -74 0
-72 74 73 0
-73 542 0
-73 543 0
73 -543 -542 0
74 -75 0
74 -76 0
-74 76 75 0
-75 553 0
-75 554 0
75 -554 -553 0
-76 561 0
-76 562 0
76 -562 -561 0
-77 78 0
-77 81 0
77 -81 -78 0
-78 79 0
-78 80 0
78 -80 -79 0
79 155 0
79 -565 0
-79 565 -155 0
80 156 0
80 -569 0
-80 569 -156 0
-81 82 0
-81 209 0
81 -209 -82 0
82 -83 0
82 -84 0
-82 84 83 0
-83 524 0
-83 525 0
83 -525 -524 0
-84 570 0
-84 571 0
84 -571 -570 0
85 -86 0
85 -88 0
-85 88 86 0
85 0
-86 87 0
-86 109 0
86 -109 -87 0
-87 5 0
-87 213 0
87 -213 -5 0
88 -89 0
88 -91 0
-88 91 89 0
-89 90 0
-89 116 0
89 -116 -90 0
-90 19 0
-90 213 0
90 -213 -19 0
91 -92 0
91 -99 0
-91 99 92 0
-92 93 0
-92 98 0
92 -98 -93 0
-93 94 0
-93 95 0
93 -95 -94 0
94 185 0
94 -565 0
-94 565 -185 0
-95 96 0
-95 97 0
95 -97 -96 0
96 186 0
96 -569 0
-96 569 -186 0
97 -2 0
97 187 0
-97 -187 2 0
-98 32 0
-98 214 0
98 -214 -32 0
99 -100 0
99 -107 0
-99 107 100 0
-100 101 0
-100 106 0
100 -106 -101 0
-101 102 0
-101 103 0
101 -103 -102 0
102 196 0
102 -565 0
-102 565 -196 0
-103 104 0
-103 105 0
103 -105 -104 0
104 197 0
104 -569 0
-104 569 -197 0
105 -2 0
105 198 0
-105 -198 2 0
-106 57 0
-106 214 0
106 -214 -57 0
107 -108 0
107 -115 0
-107 115 108 0
-108 109 0
-108 114 0
108 -114 -109 0
-109 110 0
-109 111 0
109 -111 -110 0
110 199 0
110 -565 0
-110 565 -199 0
-111 112 0
-111 113 0
111 -113 -112 0
112 200 0
112 -569 0
-112 569 -200 0
113 -2 0
113 201 0
-113 -201 2 0
-114 64 0
-114 214 0
114 -214 -64 0
-115 116 0
-115 121 0
115 -121 -116 0
-116 117 0
-116 118 0
116 -118 -117 0
117 202 0
117 -565 0
-117 565 -202 0
-118 119 0
-118 120 0
118 -120 -119 0
119 203 0
119 -569 0
-119 569 -203 0
120 -2 0
120 204 0
-120 -204 2 0
-121 82 0
-121 214 0
121 -214 -82 0
122 208 0
122 -123 0
-122 123 -208 0
122 0
-123 -145 0
-123 124 0
123 -124 145 0
-124 -146 0
-124 125 0
124 -125 146 0
-125 -151 0
-125 -152 0
125 152 151 0
126 213 0
126 -127 0
-126 127 -213 0
126 0
-127 -185 0
-127 128 0
127 -128 185 0
-128 -186 0
-128 129 0
128 -129 186 0
-129 -187 0
-129 130 0
129 -130 187 0
-130 -196 0
-130 131 0
130 -131 196 0
-131 -197 0
-131 -198 0
131 198 197 0
132 208 0
132 -133 0
-132 133 -208 0
132 0
-133 134 0
-133 137 0
133 -137 -134 0
134 -135 0
134 -136 0
-134 136 135 0
-135 -154 0
-135 153 0
135 -153 154 0
-136 -153 0
-136 154 0
136 -154 153 0
137 -138 0
137 -139 0
-137 139 138 0
-138 -156 0
-138 155 0
138 -155 156 0
-139 -155 0
-139 156 0
139 -156 155 0
140 209 0
140 -141 0
-140 141 -209 0
140 0
-141 142 0
-141 147 0
141 -147 -142 0
142 -143 0
142 -144 0
-142 144 143 0
-143 -146 0
-143 145 0
143 -145 146 0
-144 -145 0
-144 146 0
144 -146 145 0
-147 133 0
-147 148 0
147 -148 -133 0
148 -149 0
148 -150 0
-148 150 149 0
-149 -152 0
-149 151 0
149 -151 152 0
-150 -151 0
-150 152 0
150 -152 151 0
157 213 0
157 -158 0
-157 158 -213 0
157 0
-158 159 0
-158 167 0
158 -167 -159 0
159 -160 0
159 -165 0
-159 165 160 0
160 -161 0
160 -163 0
-160 163 161 0
-161 162 0
-161 199 0
161 -199 -162 0
-162 -200 0
-162 -201 0
162 201 200 0
-163 164 0
-163 200 0
163 -200 -164 0
-164 -199 0
-164 -201 0
164 201 199 0
-165 166 0
-165 201 0
165 -201 -166 0
-166 -199 0
-166 -200 0
166 200 199 0
167 -168 0
167 -173 0
-167 173 168 0
168 -169 0
168 -171 0
-168 171 169 0
-169 170 0
-169 202 0
169 -202 -170 0
-170 -203 0
-170 -204 0
170 204 203 0
-171 172 0
-171 203 0
171 -203 -172 0
-172 -202 0
-172 -204 0
172 204 202 0
-173 174 0
-173 204 0
173 -204 -174 0
-174 -202 0
-174 -203 0
174 203 202 0
175 214 0
175 -176 0
-175 176 -214 0
175 0
-176 177 0
-176 188 0
176 -188 -177 0
177 -178 0
177 -183 0
-177 183 178 0
178 -179 0
178 -181 0
-178 181 179 0
-179 180 0
-179 185 0
179 -185 -180 0
-180 -186 0
-180 -187 0
180 187 186 0
-181 182 0
-181 186 0
181 -186 -182 0
-182 -185 0
-182 -187 0
182 187 185 0
-183 184 0
-183 187 0
183 -187 -184 0
-184 -185 0
-184 -186 0
184 186 185 0
-188 158 0
-188 189 0
188 -189 -158 0
189 -190 0
189 -194 0
-189 194 190 0
190 -191 0
190 -192 0
-190 192 191 0
-191 131 0
-191 196 0
191 -196 -131 0
-192 193 0
-192 197 0
192 -197 -193 0
-193 -196 0
-193 -198 0
193 198 196 0
-194 195 0
-194 198 0
194 -198 -195 0
-195 -196 0
-195 -197 0
195 197 196 0
205 -206 0
205 -207 0
-205 207 206 0
205 0
-206 -209 0
-206 208 0
206 -208 209 0
-207 -208 0
-207 209 0
207 -209 208 0
210 -211 0
210 -212 0
-210 212 211 0
210 0
-211 -214 0
-211 213 0
211 -213 214 0
-212 -213 0
-212 214 0
212 -214 213 0
215 569 0
215 565 0
-215 -565 -569 0
215 0
216 502 0
216 499 0
-216 -499 -502 0
216 0
217 506 0
217 -218 0
-217 218 -506 0
217 0
-218 -502 0
-218 -499 0
218 499 502 0
219 509 0
219 -220 0
-219 220 -509 0
219 0
-220 -499 0
-220 221 0
220 -221 499 0
-221 -502 0
-221 -506 0
221 506 502 0
222 513 0
222 -223 0
-222 223 -513 0
222 0
-223 -499 0
-223 224 0
223 -224 499 0
-224 -502 0
-224 225 0
224 -225 502 0
-225 -506 0
-225 -509 0
225 509 506 0
226 516 0
226 -227 0
-226 227 -516 0
226 0
-227 -499 0
-227 228 0
227 -228 499 0
-228 -502 0
-228 229 0
228 -229 502 0
-229 -506 0
-229 230 0
229 -230 506 0
-230 -509 0
-230 -513 0
230 513 509 0
231 520 0
231 -232 0
-231 232 -520 0
231 0
-232 -499 0
-232 233 0
232 -233 499 0
-233 -502 0
-233 234 0
233 -234 502 0
-234 -506 0
-234 235 0
234 -235 506 0
-235 -509 0
-235 236 0
235 -236 509 0
-236 -513 0
-236 -516 0
236 516 513 0
237 524 0
237 -238 0
-237 238 -524 0
237 0
-238 -499 0
-238 239 0
238 -239 499 0
-239 -502 0
-239 240 0
239 -240 502 0
-240 -506 0
-240 241 0
240 -241 506 0
-241 -509 0
-241 242 0
241 -242 509 0
-242 -513 0
-242 243 0
242 -243 513 0
-243 -516 0
-243 -520 0
243 520 516 0
244 528 0
244 -245 0
-244 245 -528 0
244 0
-245 -499 0
-245 246 0
245 -246 499 0
-246 -502 0
-246 247 0
246 -247 502 0
-247 -506 0
-247 248 0
247 -248 506 0
-248 -509 0
-248 249 0
248 -249 509 0
-249 -513 0
-249 250 0
249 -250 513 0
-250 -516 0
-250 251 0
250 -251 516 0
-251 -520 0
-251 -524 0
251 524 520 0
252 531 0
252 -253 0
-252 253 -531 0
252 0
-253 -499 0
-253 254 0
253 -254 499 0
-254 -502 0
-254 255 0
254 -255 502 0
-255 -506 0
-255 256 0
255 -256 506 0
-256 -509 0
-256 257 0
256 -257 509 0
-257 -513 0
-257 258 0
257 -258 513 0
-258 -516 0
-258 259 0
258 -259 516 0
-259 -520 0
-259 260 0
259 -260 520 0
-260 -524 0
-260 -528 0
260 528 524 0
261 535 0
261 -262 0
-261 262 -535 0
261 0
-262 -499 0
-262 263 0
262 -263 499 0
-263 -502 0
-263 264 0
263 -264 502 0
-264 -506 0
-264 265 0
264 -265 506 0
-265 -509 0
-265 266 0
265 -266 509 0
-266 -513 0
-266 267 0
266 -267 513 0
-267 -516 0
-267 268 0
267 -268 516 0
-268 -520 0
-268 269 0
268 -269 520 0
-269 -524 0
-269 270 0
269 -270 524 0
-270 -528 0
-270 -531 0
270 531 528 0
271 539 0
271 -272 0
-271 272 -539 0
271 0
-272 -499 0
-272 273 0
272 -273 499 0
-273 -502 0
-273 274 0
273 -274 502 0
-274 -506 0
-274 275 0
274 -275 506 0
-275 -509 0
-275 276 0
275 -276 509 0
-276 -513 0
-276 277 0
276 -277 513 0
-277 -516 0
-277 278 0
277 -278 516 0
-278 -520 0
-278 279 0
278 -279 520 0
-279 -524 0
-279 280 0
279 -280 524 0
-280 -528 0
-280 281 0
280 -281 528 0
-281 -531 0
-281 -535 0
281 535 531 0
282 542 0
282 -283 0
-282 283 -542 0
282 0
-283 -499 0
-283 284 0
283 -284 499 0
-284 -502 0
-284 285 0
284 -285 502 0
-285 -506 0
-285 286 0
285 -286 506 0
-286 -509 0
-286 287 0
286 -287 509 0
-287 -513 0
-287 288 0
287 -288 513 0
-288 -516 0
-288 289 0
288 -289 516 0
-289 -520 0
-289 290 0
289 -290 520 0
-290 -524 0
-290 291 0
290 -291 524 0
-291 -528 0
-291 292 0
291 -292 528 0
-292 -531 0
-292 293 0
292 -293 531 0
-293 -535 0
-293 -539 0
293 539 535 0
294 546 0
294 -295 0
-294 295 -546 0
294 0
-295 -499 0
-295 296 0
295 -296 499 0
-296 -502 0
-296 297 0
296 -297 502 0
-297 -506 0
-297 298 0
297 -298 506 0
-298 -509 0
-298 299 0
298 -299 509 0
-299 -513 0
-299 300 0
299 -300 513 0
-300 -516 0
-300 301 0
300 -301 516 0
-301 -520 0
-301 302 0
301 -302 520 0
-302 -524 0
-302 303 0
302 -303 524 0
-303 -528 0
-303 304 0
303 -304 528 0
-304 -531 0
-304 305 0
304 -305 531 0
-305 -535 0
-305 306 0
305 -306 535 0
-306 -539 0
-306 -542 0
306 542 539 0
307 549 0
307 -308 0
-307 308 -549 0
307 0
-308 -499 0
-308 309 0
308 -309 499 0
-309 -502 0
-309 310 0
309 -310 502 0
-310 -506 0
-310 311 0
310 -311 506 0
-311 -509 0
-311 312 0
311 -312 509 0
-312 -513 0
-312 313 0
312 -313 513 0
-313 -516 0
-313 314 0
313 -314 516 0
-314 -520 0
-314 315 0
314 -315 520 0
-315 -524 0
-315 316 0
315 -316 524 0
-316 -528 0
-316 317 0
316 -317 528 0
-317 -531 0
-317 318 0
317 -318 531 0
-318 -535 0
-318 319 0
318 -319 535 0
-319 -539 0
-319 320 0
319 -320 539 0
-320 -542 0
-320 -546 0
320 546 542 0
321 553 0
321 -322 0
-321 322 -553 0
321 0
-322 -499 0
-322 323 0
322 -323 499 0
-323 -502 0
-323 324 0
323 -324 502 0
-324 -506 0
-324 325 0
324 -325 506 0
-325 -509 0
-325 326 0
325 -326 509 0
-326 -513 0
-326 327 0
326 -327 513 0
-327 -516 0
-327 328 0
327 -328 516 0
-328 -520 0
-328 329 0
328 -329 520 0
-329 -524 0
-329 330 0
329 -330 524 0
-330 -528 0
-330 331 0
330 -331 528 0
-331 -531 0
-331 332 0
331 -332 531 0
-332 -535 0
-332 333 0
332 -333 535 0
-333 -539 0
-333 334 0
333 -334 539 0
-334 -542 0
-334 335 0
334 -335 542 0
-335 -546 0
-335 -549 0
335 549 546 0
336 557 0
336 -337 0
-336 337 -557 0
336 0
-337 -499 0
-337 338 0
337 -338 499 0
-338 -502 0
-338 339 0
338 -339 502 0
-339 -506 0
-339 340 0
339 -340 506 0
-340 -509 0
-340 341 0
340 -341 509 0
-341 -513 0
-341 342 0
341 -342 513 0
-342 -516 0
-342 343 0
342 -343 516 0
-343 -520 0
-343 344 0
343 -344 520 0
-344 -524 0
-344 345 0
344 -345 524 0
-345 -528 0
-345 346 0
345 -346 528 0
-346 -531 0
-346 347 0
346 -347 531 0
-347 -535 0
-347 348 0
347 -348 535 0
-348 -539 0
-348 349 0
348 -349 539 0
-349 -542 0
-349 350 0
349 -350 542 0
-350 -546 0
-350 351 0
350 -351 546 0
-351 -549 0
-351 -553 0
351 553 549 0
352 561 0
352 -353 0
-352 353 -561 0
352 0
-353 -499 0
-353 354 0
353 -354 499 0
-354 -502 0
-354 355 0
354 -355 502 0
-355 -506 0
-355 356 0
355 -356 506 0
-356 -509 0
-356 357 0
356 -357 509 0
-357 -513 0
-357 358 0
357 -358 513 0
-358 -516 0
-358 359 0
358 -359 516 0
-359 -520 0
-359 360 0
359 -360 520 0
-360 -524 0
-360 361 0
360 -361 524 0
-361 -528 0
-361 362 0
361 -362 528 0
-362 -531 0
-362 363 0
362 -363 531 0
-363 -535 0
-363 364 0
363 -364 535 0
-364 -539 0
-364 365 0
364 -365 539 0
-365 -542 0
-365 366 0
365 -366 542 0
-366 -546 0
-366 367 0
366 -367 546 0
-367 -549 0
-367 368 0
367 -368 549 0
-368 -553 0
-368 -557 0
368 557 553 0
369 566 0
369 -370 0
-369 370 -566 0
369 0
-370 -499 0
-370 371 0
370 -371 499 0
-371 -502 0
-371 372 0
371 -372 502 0
-372 -506 0
-372 373 0
372 -373 506 0
-373 -509 0
-373 374 0
373 -374 509 0
-374 -513 0
-374 375 0
374 -375 513 0
-375 -516 0
-375 376 0
375 -376 516 0
-376 -520 0
-376 377 0
376 -377 520 0
-377 -524 0
-377 378 0
377 -378 524 0
-378 -528 0
-378 379 0
378 -379 528 0
-379 -531 0
-379 380 0
379 -380 531 0
-380 -535 0
-380 381 0
380 -381 535 0
-381 -539 0
-381 382 0
381 -382 539 0
-382 -542 0
-382 383 0
382 -383 542 0
-383 -546 0
-383 384 0
383 -384 546 0
-384 -549 0
-384 385 0
384 -385 549 0
-385 -553 0
-385 386 0
385 -386 553 0
-386 -557 0
-386 -561 0
386 561 557 0
387 570 0
387 -388 0
-387 388 -570 0
387 0
-388 -499 0
-388 389 0
388 -389 499 0
-389 -502 0
-389 390 0
389 -390 502 0
-390 -506 0
-390 391 0
390 -391 506 0
-391 -509 0
-391 392 0
391 -392 509 0
-392 -513 0
-392 393 0
392 -393 513 0
-393 -516 0
-393 394 0
393 -394 516 0
-394 -520 0
-394 395 0
394 -395 520 0
-395 -524 0
-395 396 0
395 -396 524 0
-396 -528 0
-396 397 0
396 -397 528 0
-397 -531 0
-397 398 0
397 -398 531 0
-398 -535 0
-398 399 0
398 -399 535 0
-399 -539 0
-399 400 0
399 -400 539 0
-400 -542 0
-400 401 0
400 -401 542 0
-401 -546 0
-401 402 0
401 -402 546 0
-402 -549 0
-402 403 0
402 -403 549 0
-403 -553 0
-403 404 0
403 -404 553 0
-404 -557 0
-404 405 0
404 -405 557 0
-405 -561 0
-405 -566 0
405 566 561 0
406 510 0
406 503 0
-406 -503 -510 0
406 0
407 517 0
407 -408 0
-407 408 -517 0
407 0
-408 -510 0
-408 -503 0
408 503 510 0
409 521 0
409 -410 0
-409 410 -521 0
409 0
-410 -503 0
-410 411 0
410 -411 503 0
-411 -510 0
-411 -517 0
411 517 510 0
412 525 0
412 -413 0
-412 413 -525 0
412 0
-413 -503 0
-413 414 0
413 -414 503 0
-414 -510 0
-414 415 0
414 -415 510 0
-415 -517 0
-415 -521 0
415 521 517 0
416 532 0
416 -417 0
-416 417 -532 0
416 0
-417 -503 0
-417 418 0
417 -418 503 0
-418 -510 0
-418 419 0
418 -419 510 0
-419 -517 0
-419 420 0
419 -420 517 0
-420 -521 0
-420 -525 0
420 525 521 0
421 536 0
421 -422 0
-421 422 -536 0
421 0
-422 -503 0
-422 423 0
422 -423 503 0
-423 -510 0
-423 424 0
423 -424 510 0
-424 -517 0
-424 425 0
424 -425 517 0
-425 -521 0
-425 426 0
425 -426 521 0
-426 -525 0
-426 -532 0
426 532 525 0
427 543 0
427 -428 0
-427 428 -543 0
427 0
-428 -503 0
-428 429 0
428 -429 503 0
-429 -510 0
-429 430 0
429 -430 510 0
-430 -517 0
-430 431 0
430 -431 517 0
-431 -521 0
-431 432 0
431 -432 521 0
-432 -525 0
-432 433 0
432 -433 525 0
-433 -532 0
-433 -536 0
433 536 532 0
434 550 0
434 -435 0
-434 435 -550 0
434 0
-435 -503 0
-435 436 0
435 -436 503 0
-436 -510 0
-436 437 0
436 -437 510 0
-437 -517 0
-437 438 0
437 -438 517 0
-438 -521 0
-438 439 0
438 -439 521 0
-439 -525 0
-439 440 0
439 -440 525 0
-440 -532 0
-440 441 0
440 -441 532 0
-441 -536 0
-441 -543 0
441 543 536 0
442 554 0
442 -443 0
-442 443 -554 0
442 0
-443 -503 0
-443 444 0
443 -444 503 0
-444 -510 0
-444 445 0
444 -445 510 0
-445 -517 0
-445 446 0
445 -446 517 0
-446 -521 0
-446 447 0
446 -447 521 0
-447 -525 0
-447 448 0
447 -448 525 0
-448 -532 0
-448 449 0
448 -449 532 0
-449 -536 0
-449 450 0
449 -450 536 0
-450 -543 0
-450 -550 0
450 550 543 0
451 558 0
451 -452 0
-451 452 -558 0
451 0
-452 -503 0
-452 453 0
452 -453 503 0
-453 -510 0
-453 454 0
453 -454 510 0
-454 -517 0
-454 455 0
454 -455 517 0
-455 -521 0
-455 456 0
455 -456 521 0
-456 -525 0
-456 457 0
456 -457 525 0
-457 -532 0
-457 458 0
457 -458 532 0
-458 -536 0
-458 459 0
458 -459 536 0
-459 -543 0
-459 460 0
459 -460 543 0
-460 -550 0
-460 -554 0
460 554 550 0
461 562 0
461 -462 0
-461 462 -562 0
461 0
-462 -503 0
-462 463 0
462 -463 503 0
-463 -510 0
-463 464 0
463 -464 510 0
-464 -517 0
-464 465 0
464 -465 517 0
-465 -521 0
-465 466 0
465 -466 521 0
-466 -525 0
-466 467 0
466 -467 525 0
-467 -532 0
-467 468 0
467 -468 532 0
-468 -536 0
-468 469 0
468 -469 536 0
-469 -543 0
-469 470 0
469 -470 543 0
-470 -550 0
-470 471 0
470 -471 550 0
-471 -554 0
-471 -558 0
471 558 554 0
472 567 0
472 -473 0
-472 473 -567 0
472 0
-473 -503 0
-473 474 0
473 -474 503 0
-474 -510 0
-474 475 0
474 -475 510 0
-475 -517 0
-475 476 0
475 -476 517 0
-476 -521 0
-476 477 0
476 -477 521 0
-477 -525 0
-477 478 0
477 -478 525 0
-478 -532 0
-478 479 0
478 -479 532 0
-479 -536 0
-479 480 0
479 -480 536 0
-480 -543 0
-480 481 0
480 -481 543 0
-481 -550 0
-481 482 0
481 -482 550 0
-482 -554 0
-482 483 0
482 -483 554 0
-483 -558 0
-483 -562 0
483 562 558 0
484 571 0
484 -485 0
-484 485 -571 0
484 0
-485 -503 0
-485 486 0
485 -486 503 0
-486 -510 0
-486 487 0
486 -487 510 0
-487 -517 0
-487 488 0
487 -488 517 0
-488 -521 0
-488 489 0
488 -489 521 0
-489 -525 0
-489 490 0
489 -490 525 0
-490 -532 0
-490 491 0
490 -491 532 0
-491 -536 0
-491 492 0
491 -492 536 0
-492 -543 0
-492 493 0
492 -493 543 0
-493 -550 0
-493 494 0
493 -494 550 0
-494 -554 0
-494 495 0
494 -495 554 0
-495 -558 0
-495 496 0
495 -496 558 0
-496 -562 0
-496 -567 0
496 567 562 0
497 -498 0
497 -500 0
-497 500 498 0
497 0
-498 33 0
-498 565 0
498 -565 -33 0
500 -501 0
500 -504 0
-500 504 501 0
-501 65 0
-501 565 0
501 -565 -65 0
504 -505 0
504 -507 0
-504 507 505 0
-505 35 0
-505 565 0
505 -565 -35 0
507 -508 0
507 -511 0
-507 511 508 0
-508 67 0
-508 565 0
508 -565 -67 0
511 -512 0
511 -514 0
-511 514 512 0
-512 69 0
-512 565 0
512 -565 -69 0
514 -515 0
514 -518 0
-514 518 515 0
-515 37 0
-515 565 0
515 -565 -37 0
518 -519 0
518 -522 0
-518 522 519 0
-519 57 0
-519 565 0
519 -565 -57 0
522 -523 0
522 -526 0
-522 526 523 0
-523 83 0
-523 569 0
523 -569 -83 0
526 -527 0
526 -529 0
-526 529 527 0
-527 39 0
-527 565 0
527 -565 -39 0
529 -530 0
529 -533 0
-529 533 530 0
-530 41 0
-530 565 0
530 -565 -41 0
533 -534 0
533 -537 0
-533 537 534 0
-534 71 0
-534 565 0
534 -565 -71 0
537 -538 0
537 -540 0
-537 540 538 0
-538 43 0
-538 565 0
538 -565 -43 0
540 -541 0
540 -544 0
-540 544 541 0
-541 73 0
-541 565 0
541 -565 -73 0
544 -545 0
544 -547 0
-544 547 545 0
-545 45 0
-545 565 0
545 -565 -45 0
547 -548 0
547 -551 0
-547 551 548 0
-548 47 0
-548 565 0
548 -565 -47 0
551 -552 0
551 -555 0
-551 555 552 0
-552 75 0
-552 565 0
552 -565 -75 0
555 -556 0
555 -559 0
-555 559 556 0
-556 49 0
-556 565 0
556 -565 -49 0
559 -560 0
559 -563 0
-559 563 560 0
-560 76 0
-560 565 0
560 -565 -76 0
563 -564 0
563 -568 0
-563 568 564 0
-564 50 0
-564 565 0
564 -565 -50 0
-568 84 0
-568 569 0
568 -569 -84 0
